X = 13;
Y = 10;
N = 11;

end_points_start_x = [1,  2,  6,  7,  4, 2, 6, 5, 3, 12, 11];
end_points_start_y = [1,  1,  3,  4,  6, 9, 5, 8, 9, 10,  7];
end_points_end_x   = [9, 12, 12, 12, 12, 6, 6, 8, 8, 13, 12];
end_points_end_y   = [1,  2,  9,  5,  8, 4, 8, 7, 6,  4,  4];
